; benchmark generated from python API
(set-info :status unknown)
(declare-fun cell_1_1 () Int)
(declare-fun cell_1_3 () Int)
(declare-fun cell_2_6 () Int)
(declare-fun cell_2_8 () Int)
(declare-fun cell_3_4 () Int)
(declare-fun cell_3_8 () Int)
(declare-fun cell_4_6 () Int)
(declare-fun cell_4_9 () Int)
(declare-fun cell_5_1 () Int)
(declare-fun cell_5_9 () Int)
(declare-fun cell_6_3 () Int)
(declare-fun cell_6_4 () Int)
(declare-fun cell_7_5 () Int)
(declare-fun cell_8_2 () Int)
(declare-fun cell_9_7 () Int)
(declare-fun cell_2_1 () Int)
(declare-fun cell_3_1 () Int)
(declare-fun cell_4_1 () Int)
(declare-fun cell_6_1 () Int)
(declare-fun cell_7_1 () Int)
(declare-fun cell_8_1 () Int)
(declare-fun cell_9_1 () Int)
(declare-fun cell_1_2 () Int)
(declare-fun cell_2_2 () Int)
(declare-fun cell_3_2 () Int)
(declare-fun cell_4_2 () Int)
(declare-fun cell_5_2 () Int)
(declare-fun cell_6_2 () Int)
(declare-fun cell_7_2 () Int)
(declare-fun cell_9_2 () Int)
(declare-fun cell_2_3 () Int)
(declare-fun cell_3_3 () Int)
(declare-fun cell_4_3 () Int)
(declare-fun cell_5_3 () Int)
(declare-fun cell_7_3 () Int)
(declare-fun cell_8_3 () Int)
(declare-fun cell_9_3 () Int)
(declare-fun cell_1_4 () Int)
(declare-fun cell_2_4 () Int)
(declare-fun cell_4_4 () Int)
(declare-fun cell_5_4 () Int)
(declare-fun cell_7_4 () Int)
(declare-fun cell_8_4 () Int)
(declare-fun cell_9_4 () Int)
(declare-fun cell_1_5 () Int)
(declare-fun cell_2_5 () Int)
(declare-fun cell_3_5 () Int)
(declare-fun cell_4_5 () Int)
(declare-fun cell_5_5 () Int)
(declare-fun cell_6_5 () Int)
(declare-fun cell_8_5 () Int)
(declare-fun cell_9_5 () Int)
(declare-fun cell_1_6 () Int)
(declare-fun cell_3_6 () Int)
(declare-fun cell_5_6 () Int)
(declare-fun cell_6_6 () Int)
(declare-fun cell_7_6 () Int)
(declare-fun cell_8_6 () Int)
(declare-fun cell_9_6 () Int)
(declare-fun cell_1_7 () Int)
(declare-fun cell_2_7 () Int)
(declare-fun cell_3_7 () Int)
(declare-fun cell_4_7 () Int)
(declare-fun cell_5_7 () Int)
(declare-fun cell_6_7 () Int)
(declare-fun cell_7_7 () Int)
(declare-fun cell_8_7 () Int)
(declare-fun cell_1_8 () Int)
(declare-fun cell_4_8 () Int)
(declare-fun cell_5_8 () Int)
(declare-fun cell_6_8 () Int)
(declare-fun cell_7_8 () Int)
(declare-fun cell_8_8 () Int)
(declare-fun cell_9_8 () Int)
(declare-fun cell_1_9 () Int)
(declare-fun cell_2_9 () Int)
(declare-fun cell_3_9 () Int)
(declare-fun cell_6_9 () Int)
(declare-fun cell_7_9 () Int)
(declare-fun cell_8_9 () Int)
(declare-fun cell_9_9 () Int)
(assert
 (= cell_1_1 1))
(assert
 (= cell_1_3 2))
(assert
 (= cell_2_6 2))
(assert
 (= cell_2_8 1))
(assert
 (= cell_3_4 1))
(assert
 (= cell_3_8 2))
(assert
 (= cell_4_6 1))
(assert
 (= cell_4_9 2))
(assert
 (= cell_5_1 2))
(assert
 (= cell_5_9 1))
(assert
 (= cell_6_3 1))
(assert
 (= cell_6_4 2))
(assert
 (= cell_7_5 1))
(assert
 (= cell_8_2 1))
(assert
 (= cell_9_7 1))
(assert
 (let (($x823 (= cell_1_1 1)))
 (or $x823 (= cell_1_1 2) (= cell_1_1 3) (= cell_1_1 4) (= cell_1_1 5) (= cell_1_1 6) (= cell_1_1 7) (= cell_1_1 8) (= cell_1_1 9))))
(assert
 (let (($x5592 (= cell_2_1 9)))
 (let (($x9215 (= cell_2_1 8)))
 (let (($x25 (= cell_2_1 7)))
 (let (($x8642 (= cell_2_1 6)))
 (let (($x314 (= cell_2_1 5)))
 (let (($x264 (= cell_2_1 4)))
 (let (($x5613 (= cell_2_1 3)))
 (let (($x1626 (= cell_2_1 2)))
 (let (($x6025 (= cell_2_1 1)))
 (or $x6025 $x1626 $x5613 $x264 $x314 $x8642 $x25 $x9215 $x5592)))))))))))
(assert
 (let (($x9388 (= cell_3_1 9)))
 (let (($x7656 (= cell_3_1 8)))
 (let (($x2347 (= cell_3_1 7)))
 (let (($x4152 (= cell_3_1 6)))
 (let (($x8741 (= cell_3_1 5)))
 (let (($x7260 (= cell_3_1 4)))
 (let (($x6721 (= cell_3_1 3)))
 (let (($x2507 (= cell_3_1 2)))
 (let (($x605 (= cell_3_1 1)))
 (or $x605 $x2507 $x6721 $x7260 $x8741 $x4152 $x2347 $x7656 $x9388)))))))))))
(assert
 (let (($x8259 (= cell_4_1 9)))
 (let (($x6153 (= cell_4_1 8)))
 (let (($x3080 (= cell_4_1 7)))
 (let (($x1356 (= cell_4_1 6)))
 (let (($x9810 (= cell_4_1 5)))
 (let (($x7378 (= cell_4_1 4)))
 (let (($x6112 (= cell_4_1 3)))
 (let (($x2749 (= cell_4_1 2)))
 (let (($x9197 (= cell_4_1 1)))
 (or $x9197 $x2749 $x6112 $x7378 $x9810 $x1356 $x3080 $x6153 $x8259)))))))))))
(assert
 (let (($x6866 (= cell_5_1 2)))
 (or (= cell_5_1 1) $x6866 (= cell_5_1 3) (= cell_5_1 4) (= cell_5_1 5) (= cell_5_1 6) (= cell_5_1 7) (= cell_5_1 8) (= cell_5_1 9))))
(assert
 (let (($x6302 (= cell_6_1 9)))
 (let (($x2679 (= cell_6_1 8)))
 (let (($x8023 (= cell_6_1 7)))
 (let (($x784 (= cell_6_1 6)))
 (let (($x574 (= cell_6_1 5)))
 (let (($x1335 (= cell_6_1 4)))
 (let (($x6604 (= cell_6_1 3)))
 (let (($x3858 (= cell_6_1 2)))
 (let (($x7467 (= cell_6_1 1)))
 (or $x7467 $x3858 $x6604 $x1335 $x574 $x784 $x8023 $x2679 $x6302)))))))))))
(assert
 (let (($x5239 (= cell_7_1 9)))
 (let (($x1478 (= cell_7_1 8)))
 (let (($x1744 (= cell_7_1 7)))
 (let (($x7800 (= cell_7_1 6)))
 (let (($x8473 (= cell_7_1 5)))
 (let (($x3503 (= cell_7_1 4)))
 (let (($x3685 (= cell_7_1 3)))
 (let (($x2704 (= cell_7_1 2)))
 (let (($x8523 (= cell_7_1 1)))
 (or $x8523 $x2704 $x3685 $x3503 $x8473 $x7800 $x1744 $x1478 $x5239)))))))))))
(assert
 (let (($x4331 (= cell_8_1 9)))
 (let (($x9711 (= cell_8_1 8)))
 (let (($x1146 (= cell_8_1 7)))
 (let (($x8913 (= cell_8_1 6)))
 (let (($x5859 (= cell_8_1 5)))
 (let (($x3514 (= cell_8_1 4)))
 (let (($x5189 (= cell_8_1 3)))
 (let (($x9889 (= cell_8_1 2)))
 (let (($x9518 (= cell_8_1 1)))
 (or $x9518 $x9889 $x5189 $x3514 $x5859 $x8913 $x1146 $x9711 $x4331)))))))))))
(assert
 (let (($x9814 (= cell_9_1 9)))
 (let (($x10070 (= cell_9_1 8)))
 (let (($x609 (= cell_9_1 7)))
 (let (($x7630 (= cell_9_1 6)))
 (let (($x4012 (= cell_9_1 5)))
 (let (($x2870 (= cell_9_1 4)))
 (let (($x1872 (= cell_9_1 3)))
 (let (($x9583 (= cell_9_1 2)))
 (let (($x10227 (= cell_9_1 1)))
 (or $x10227 $x9583 $x1872 $x2870 $x4012 $x7630 $x609 $x10070 $x9814)))))))))))
(assert
 (let (($x626 (= cell_1_2 9)))
 (let (($x1989 (= cell_1_2 8)))
 (let (($x7588 (= cell_1_2 7)))
 (let (($x3587 (= cell_1_2 6)))
 (let (($x1582 (= cell_1_2 5)))
 (let (($x20 (= cell_1_2 4)))
 (let (($x7262 (= cell_1_2 3)))
 (let (($x6496 (= cell_1_2 2)))
 (let (($x4500 (= cell_1_2 1)))
 (or $x4500 $x6496 $x7262 $x20 $x1582 $x3587 $x7588 $x1989 $x626)))))))))))
(assert
 (let (($x5976 (= cell_2_2 9)))
 (let (($x3524 (= cell_2_2 8)))
 (let (($x943 (= cell_2_2 7)))
 (let (($x3551 (= cell_2_2 6)))
 (let (($x9485 (= cell_2_2 5)))
 (let (($x5905 (= cell_2_2 4)))
 (let (($x8256 (= cell_2_2 3)))
 (let (($x5125 (= cell_2_2 2)))
 (let (($x6257 (= cell_2_2 1)))
 (or $x6257 $x5125 $x8256 $x5905 $x9485 $x3551 $x943 $x3524 $x5976)))))))))))
(assert
 (let (($x9858 (= cell_3_2 9)))
 (let (($x9968 (= cell_3_2 8)))
 (let (($x9749 (= cell_3_2 7)))
 (let (($x9938 (= cell_3_2 6)))
 (let (($x1164 (= cell_3_2 5)))
 (let (($x6999 (= cell_3_2 4)))
 (let (($x2319 (= cell_3_2 3)))
 (let (($x8800 (= cell_3_2 2)))
 (let (($x1061 (= cell_3_2 1)))
 (or $x1061 $x8800 $x2319 $x6999 $x1164 $x9938 $x9749 $x9968 $x9858)))))))))))
(assert
 (let (($x2859 (= cell_4_2 9)))
 (let (($x10299 (= cell_4_2 8)))
 (let (($x4144 (= cell_4_2 7)))
 (let (($x2593 (= cell_4_2 6)))
 (let (($x9328 (= cell_4_2 5)))
 (let (($x310 (= cell_4_2 4)))
 (let (($x8498 (= cell_4_2 3)))
 (let (($x3170 (= cell_4_2 2)))
 (let (($x959 (= cell_4_2 1)))
 (or $x959 $x3170 $x8498 $x310 $x9328 $x2593 $x4144 $x10299 $x2859)))))))))))
(assert
 (let (($x2235 (= cell_5_2 9)))
 (let (($x5767 (= cell_5_2 8)))
 (let (($x2665 (= cell_5_2 7)))
 (let (($x9305 (= cell_5_2 6)))
 (let (($x751 (= cell_5_2 5)))
 (let (($x4649 (= cell_5_2 4)))
 (let (($x1326 (= cell_5_2 3)))
 (let (($x4992 (= cell_5_2 2)))
 (let (($x6746 (= cell_5_2 1)))
 (or $x6746 $x4992 $x1326 $x4649 $x751 $x9305 $x2665 $x5767 $x2235)))))))))))
(assert
 (let (($x7350 (= cell_6_2 9)))
 (let (($x459 (= cell_6_2 8)))
 (let (($x3188 (= cell_6_2 7)))
 (let (($x4277 (= cell_6_2 6)))
 (let (($x3474 (= cell_6_2 5)))
 (let (($x2933 (= cell_6_2 4)))
 (let (($x8986 (= cell_6_2 3)))
 (let (($x3953 (= cell_6_2 2)))
 (let (($x10149 (= cell_6_2 1)))
 (or $x10149 $x3953 $x8986 $x2933 $x3474 $x4277 $x3188 $x459 $x7350)))))))))))
(assert
 (let (($x6424 (= cell_7_2 9)))
 (let (($x8590 (= cell_7_2 8)))
 (let (($x5832 (= cell_7_2 7)))
 (let (($x4636 (= cell_7_2 6)))
 (let (($x6762 (= cell_7_2 5)))
 (let (($x6586 (= cell_7_2 4)))
 (let (($x7108 (= cell_7_2 3)))
 (let (($x5837 (= cell_7_2 2)))
 (let (($x7722 (= cell_7_2 1)))
 (or $x7722 $x5837 $x7108 $x6586 $x6762 $x4636 $x5832 $x8590 $x6424)))))))))))
(assert
 (let (($x2884 (= cell_8_2 1)))
 (or $x2884 (= cell_8_2 2) (= cell_8_2 3) (= cell_8_2 4) (= cell_8_2 5) (= cell_8_2 6) (= cell_8_2 7) (= cell_8_2 8) (= cell_8_2 9))))
(assert
 (let (($x5997 (= cell_9_2 9)))
 (let (($x3020 (= cell_9_2 8)))
 (let (($x3912 (= cell_9_2 7)))
 (let (($x10165 (= cell_9_2 6)))
 (let (($x4321 (= cell_9_2 5)))
 (let (($x5333 (= cell_9_2 4)))
 (let (($x3631 (= cell_9_2 3)))
 (let (($x2505 (= cell_9_2 2)))
 (let (($x5232 (= cell_9_2 1)))
 (or $x5232 $x2505 $x3631 $x5333 $x4321 $x10165 $x3912 $x3020 $x5997)))))))))))
(assert
 (let (($x64 (= cell_1_3 2)))
 (or (= cell_1_3 1) $x64 (= cell_1_3 3) (= cell_1_3 4) (= cell_1_3 5) (= cell_1_3 6) (= cell_1_3 7) (= cell_1_3 8) (= cell_1_3 9))))
(assert
 (let (($x478 (= cell_2_3 9)))
 (let (($x4075 (= cell_2_3 8)))
 (let (($x3444 (= cell_2_3 7)))
 (let (($x7911 (= cell_2_3 6)))
 (let (($x8947 (= cell_2_3 5)))
 (let (($x9303 (= cell_2_3 4)))
 (let (($x9943 (= cell_2_3 3)))
 (let (($x94 (= cell_2_3 2)))
 (let (($x4452 (= cell_2_3 1)))
 (or $x4452 $x94 $x9943 $x9303 $x8947 $x7911 $x3444 $x4075 $x478)))))))))))
(assert
 (let (($x4970 (= cell_3_3 9)))
 (let (($x3989 (= cell_3_3 8)))
 (let (($x3327 (= cell_3_3 7)))
 (let (($x9034 (= cell_3_3 6)))
 (let (($x1641 (= cell_3_3 5)))
 (let (($x88 (= cell_3_3 4)))
 (let (($x9159 (= cell_3_3 3)))
 (let (($x2398 (= cell_3_3 2)))
 (let (($x5566 (= cell_3_3 1)))
 (or $x5566 $x2398 $x9159 $x88 $x1641 $x9034 $x3327 $x3989 $x4970)))))))))))
(assert
 (let (($x4205 (= cell_4_3 9)))
 (let (($x1329 (= cell_4_3 8)))
 (let (($x1471 (= cell_4_3 7)))
 (let (($x2461 (= cell_4_3 6)))
 (let (($x6610 (= cell_4_3 5)))
 (let (($x6923 (= cell_4_3 4)))
 (let (($x1187 (= cell_4_3 3)))
 (let (($x3976 (= cell_4_3 2)))
 (let (($x623 (= cell_4_3 1)))
 (or $x623 $x3976 $x1187 $x6923 $x6610 $x2461 $x1471 $x1329 $x4205)))))))))))
(assert
 (let (($x7916 (= cell_5_3 9)))
 (let (($x787 (= cell_5_3 8)))
 (let (($x5551 (= cell_5_3 7)))
 (let (($x6366 (= cell_5_3 6)))
 (let (($x7161 (= cell_5_3 5)))
 (let (($x2949 (= cell_5_3 4)))
 (let (($x7019 (= cell_5_3 3)))
 (let (($x4709 (= cell_5_3 2)))
 (let (($x7006 (= cell_5_3 1)))
 (or $x7006 $x4709 $x7019 $x2949 $x7161 $x6366 $x5551 $x787 $x7916)))))))))))
(assert
 (let (($x1986 (= cell_6_3 1)))
 (or $x1986 (= cell_6_3 2) (= cell_6_3 3) (= cell_6_3 4) (= cell_6_3 5) (= cell_6_3 6) (= cell_6_3 7) (= cell_6_3 8) (= cell_6_3 9))))
(assert
 (let (($x6328 (= cell_7_3 9)))
 (let (($x7694 (= cell_7_3 8)))
 (let (($x628 (= cell_7_3 7)))
 (let (($x8768 (= cell_7_3 6)))
 (let (($x2843 (= cell_7_3 5)))
 (let (($x6205 (= cell_7_3 4)))
 (let (($x958 (= cell_7_3 3)))
 (let (($x7835 (= cell_7_3 2)))
 (let (($x1518 (= cell_7_3 1)))
 (or $x1518 $x7835 $x958 $x6205 $x2843 $x8768 $x628 $x7694 $x6328)))))))))))
(assert
 (let (($x7579 (= cell_8_3 2)))
 (let (($x5574 (= cell_8_3 1)))
 (or $x5574 $x7579 (= cell_8_3 3) (= cell_8_3 4) (= cell_8_3 5) (= cell_8_3 6) (= cell_8_3 7) (= cell_8_3 8) (= cell_8_3 9)))))
(assert
 (let (($x2464 (= cell_9_3 9)))
 (let (($x5863 (= cell_9_3 8)))
 (let (($x5475 (= cell_9_3 7)))
 (let (($x8354 (= cell_9_3 6)))
 (let (($x8792 (= cell_9_3 5)))
 (let (($x1880 (= cell_9_3 4)))
 (let (($x8544 (= cell_9_3 3)))
 (let (($x6126 (= cell_9_3 2)))
 (let (($x5743 (= cell_9_3 1)))
 (or $x5743 $x6126 $x8544 $x1880 $x8792 $x8354 $x5475 $x5863 $x2464)))))))))))
(assert
 (let (($x2282 (= cell_1_4 9)))
 (let (($x9770 (= cell_1_4 8)))
 (let (($x10163 (= cell_1_4 7)))
 (let (($x2708 (= cell_1_4 6)))
 (let (($x7801 (= cell_1_4 5)))
 (let (($x7385 (= cell_1_4 4)))
 (let (($x794 (= cell_1_4 3)))
 (let (($x6805 (= cell_1_4 2)))
 (let (($x47 (= cell_1_4 1)))
 (or $x47 $x6805 $x794 $x7385 $x7801 $x2708 $x10163 $x9770 $x2282)))))))))))
(assert
 (let (($x6354 (= cell_2_4 9)))
 (let (($x8034 (= cell_2_4 8)))
 (let (($x7884 (= cell_2_4 7)))
 (let (($x9190 (= cell_2_4 6)))
 (let (($x4689 (= cell_2_4 5)))
 (let (($x2697 (= cell_2_4 4)))
 (let (($x6002 (= cell_2_4 3)))
 (let (($x1242 (= cell_2_4 2)))
 (let (($x1851 (= cell_2_4 1)))
 (or $x1851 $x1242 $x6002 $x2697 $x4689 $x9190 $x7884 $x8034 $x6354)))))))))))
(assert
 (let (($x7286 (= cell_3_4 1)))
 (or $x7286 (= cell_3_4 2) (= cell_3_4 3) (= cell_3_4 4) (= cell_3_4 5) (= cell_3_4 6) (= cell_3_4 7) (= cell_3_4 8) (= cell_3_4 9))))
(assert
 (let (($x1859 (= cell_4_4 9)))
 (let (($x5469 (= cell_4_4 8)))
 (let (($x5485 (= cell_4_4 7)))
 (let (($x800 (= cell_4_4 6)))
 (let (($x3092 (= cell_4_4 5)))
 (let (($x6395 (= cell_4_4 4)))
 (let (($x6928 (= cell_4_4 3)))
 (let (($x5360 (= cell_4_4 2)))
 (let (($x10052 (= cell_4_4 1)))
 (or $x10052 $x5360 $x6928 $x6395 $x3092 $x800 $x5485 $x5469 $x1859)))))))))))
(assert
 (let (($x10220 (= cell_5_4 9)))
 (let (($x2668 (= cell_5_4 8)))
 (let (($x6050 (= cell_5_4 7)))
 (let (($x7815 (= cell_5_4 6)))
 (let (($x6113 (= cell_5_4 5)))
 (let (($x5645 (= cell_5_4 4)))
 (let (($x10244 (= cell_5_4 3)))
 (let (($x6338 (= cell_5_4 2)))
 (let (($x10241 (= cell_5_4 1)))
 (or $x10241 $x6338 $x10244 $x5645 $x6113 $x7815 $x6050 $x2668 $x10220)))))))))))
(assert
 (let (($x611 (= cell_6_4 2)))
 (or (= cell_6_4 1) $x611 (= cell_6_4 3) (= cell_6_4 4) (= cell_6_4 5) (= cell_6_4 6) (= cell_6_4 7) (= cell_6_4 8) (= cell_6_4 9))))
(assert
 (let (($x3941 (= cell_7_4 9)))
 (let (($x2950 (= cell_7_4 8)))
 (let (($x722 (= cell_7_4 7)))
 (let (($x4724 (= cell_7_4 6)))
 (let (($x9113 (= cell_7_4 5)))
 (let (($x2545 (= cell_7_4 4)))
 (let (($x8105 (= cell_7_4 3)))
 (let (($x9981 (= cell_7_4 2)))
 (let (($x1481 (= cell_7_4 1)))
 (or $x1481 $x9981 $x8105 $x2545 $x9113 $x4724 $x722 $x2950 $x3941)))))))))))
(assert
 (let (($x3497 (= cell_8_4 2)))
 (let (($x4805 (= cell_8_4 1)))
 (or $x4805 $x3497 (= cell_8_4 3) (= cell_8_4 4) (= cell_8_4 5) (= cell_8_4 6) (= cell_8_4 7) (= cell_8_4 8) (= cell_8_4 9)))))
(assert
 (let (($x1457 (= cell_9_4 9)))
 (let (($x2185 (= cell_9_4 8)))
 (let (($x9098 (= cell_9_4 7)))
 (let (($x3708 (= cell_9_4 6)))
 (let (($x5765 (= cell_9_4 5)))
 (let (($x5577 (= cell_9_4 4)))
 (let (($x1019 (= cell_9_4 3)))
 (let (($x639 (= cell_9_4 2)))
 (let (($x9040 (= cell_9_4 1)))
 (or $x9040 $x639 $x1019 $x5577 $x5765 $x3708 $x9098 $x2185 $x1457)))))))))))
(assert
 (let (($x4167 (= cell_1_5 9)))
 (let (($x4996 (= cell_1_5 8)))
 (let (($x8495 (= cell_1_5 7)))
 (let (($x683 (= cell_1_5 6)))
 (let (($x4323 (= cell_1_5 5)))
 (let (($x6166 (= cell_1_5 4)))
 (let (($x637 (= cell_1_5 3)))
 (let (($x9704 (= cell_1_5 2)))
 (let (($x6426 (= cell_1_5 1)))
 (or $x6426 $x9704 $x637 $x6166 $x4323 $x683 $x8495 $x4996 $x4167)))))))))))
(assert
 (let (($x7231 (= cell_2_5 9)))
 (let (($x5157 (= cell_2_5 8)))
 (let (($x9096 (= cell_2_5 7)))
 (let (($x7836 (= cell_2_5 6)))
 (let (($x1283 (= cell_2_5 5)))
 (let (($x7652 (= cell_2_5 4)))
 (let (($x8930 (= cell_2_5 3)))
 (let (($x8100 (= cell_2_5 2)))
 (let (($x7972 (= cell_2_5 1)))
 (or $x7972 $x8100 $x8930 $x7652 $x1283 $x7836 $x9096 $x5157 $x7231)))))))))))
(assert
 (let (($x1256 (= cell_3_5 9)))
 (let (($x3695 (= cell_3_5 8)))
 (let (($x1483 (= cell_3_5 7)))
 (let (($x2580 (= cell_3_5 6)))
 (let (($x8243 (= cell_3_5 5)))
 (let (($x185 (= cell_3_5 4)))
 (let (($x6800 (= cell_3_5 3)))
 (let (($x1801 (= cell_3_5 2)))
 (let (($x7134 (= cell_3_5 1)))
 (or $x7134 $x1801 $x6800 $x185 $x8243 $x2580 $x1483 $x3695 $x1256)))))))))))
(assert
 (let (($x167 (= cell_4_5 9)))
 (let (($x8727 (= cell_4_5 8)))
 (let (($x3678 (= cell_4_5 7)))
 (let (($x3776 (= cell_4_5 6)))
 (let (($x5278 (= cell_4_5 5)))
 (let (($x9373 (= cell_4_5 4)))
 (let (($x9025 (= cell_4_5 3)))
 (let (($x1681 (= cell_4_5 2)))
 (let (($x1790 (= cell_4_5 1)))
 (or $x1790 $x1681 $x9025 $x9373 $x5278 $x3776 $x3678 $x8727 $x167)))))))))))
(assert
 (let (($x4698 (= cell_5_5 9)))
 (let (($x5814 (= cell_5_5 8)))
 (let (($x1012 (= cell_5_5 7)))
 (let (($x8813 (= cell_5_5 6)))
 (let (($x3905 (= cell_5_5 5)))
 (let (($x6688 (= cell_5_5 4)))
 (let (($x176 (= cell_5_5 3)))
 (let (($x5067 (= cell_5_5 2)))
 (let (($x9556 (= cell_5_5 1)))
 (or $x9556 $x5067 $x176 $x6688 $x3905 $x8813 $x1012 $x5814 $x4698)))))))))))
(assert
 (let (($x8312 (= cell_6_5 9)))
 (let (($x1365 (= cell_6_5 8)))
 (let (($x1837 (= cell_6_5 7)))
 (let (($x5915 (= cell_6_5 6)))
 (let (($x4272 (= cell_6_5 5)))
 (let (($x2388 (= cell_6_5 4)))
 (let (($x1862 (= cell_6_5 3)))
 (let (($x5579 (= cell_6_5 2)))
 (let (($x9310 (= cell_6_5 1)))
 (or $x9310 $x5579 $x1862 $x2388 $x4272 $x5915 $x1837 $x1365 $x8312)))))))))))
(assert
 (let (($x1375 (= cell_7_5 1)))
 (or $x1375 (= cell_7_5 2) (= cell_7_5 3) (= cell_7_5 4) (= cell_7_5 5) (= cell_7_5 6) (= cell_7_5 7) (= cell_7_5 8) (= cell_7_5 9))))
(assert
 (let (($x7469 (= cell_8_5 1)))
 (or $x7469 (= cell_8_5 2) (= cell_8_5 3) (= cell_8_5 4) (= cell_8_5 5) (= cell_8_5 6) (= cell_8_5 7) (= cell_8_5 8) (= cell_8_5 9))))
(assert
 (let (($x7510 (= cell_9_5 9)))
 (let (($x4105 (= cell_9_5 8)))
 (let (($x10022 (= cell_9_5 7)))
 (let (($x8352 (= cell_9_5 6)))
 (let (($x4123 (= cell_9_5 5)))
 (let (($x7600 (= cell_9_5 4)))
 (let (($x4948 (= cell_9_5 3)))
 (let (($x8494 (= cell_9_5 2)))
 (let (($x8846 (= cell_9_5 1)))
 (or $x8846 $x8494 $x4948 $x7600 $x4123 $x8352 $x10022 $x4105 $x7510)))))))))))
(assert
 (let (($x7958 (= cell_1_6 9)))
 (let (($x1809 (= cell_1_6 8)))
 (let (($x27 (= cell_1_6 7)))
 (let (($x8414 (= cell_1_6 6)))
 (let (($x3208 (= cell_1_6 5)))
 (let (($x5580 (= cell_1_6 4)))
 (let (($x2987 (= cell_1_6 3)))
 (let (($x399 (= cell_1_6 2)))
 (let (($x3778 (= cell_1_6 1)))
 (or $x3778 $x399 $x2987 $x5580 $x3208 $x8414 $x27 $x1809 $x7958)))))))))))
(assert
 (let (($x3164 (= cell_2_6 2)))
 (or (= cell_2_6 1) $x3164 (= cell_2_6 3) (= cell_2_6 4) (= cell_2_6 5) (= cell_2_6 6) (= cell_2_6 7) (= cell_2_6 8) (= cell_2_6 9))))
(assert
 (let (($x4632 (= cell_3_6 9)))
 (let (($x1158 (= cell_3_6 8)))
 (let (($x3419 (= cell_3_6 7)))
 (let (($x3333 (= cell_3_6 6)))
 (let (($x3195 (= cell_3_6 5)))
 (let (($x3053 (= cell_3_6 4)))
 (let (($x1973 (= cell_3_6 3)))
 (let (($x5136 (= cell_3_6 2)))
 (let (($x830 (= cell_3_6 1)))
 (or $x830 $x5136 $x1973 $x3053 $x3195 $x3333 $x3419 $x1158 $x4632)))))))))))
(assert
 (let (($x6148 (= cell_4_6 1)))
 (or $x6148 (= cell_4_6 2) (= cell_4_6 3) (= cell_4_6 4) (= cell_4_6 5) (= cell_4_6 6) (= cell_4_6 7) (= cell_4_6 8) (= cell_4_6 9))))
(assert
 (let (($x5112 (= cell_5_6 9)))
 (let (($x177 (= cell_5_6 8)))
 (let (($x1462 (= cell_5_6 7)))
 (let (($x4991 (= cell_5_6 6)))
 (let (($x4647 (= cell_5_6 5)))
 (let (($x2179 (= cell_5_6 4)))
 (let (($x989 (= cell_5_6 3)))
 (let (($x1367 (= cell_5_6 2)))
 (let (($x5721 (= cell_5_6 1)))
 (or $x5721 $x1367 $x989 $x2179 $x4647 $x4991 $x1462 $x177 $x5112)))))))))))
(assert
 (let (($x6325 (= cell_6_6 2)))
 (let (($x6277 (= cell_6_6 1)))
 (or $x6277 $x6325 (= cell_6_6 3) (= cell_6_6 4) (= cell_6_6 5) (= cell_6_6 6) (= cell_6_6 7) (= cell_6_6 8) (= cell_6_6 9)))))
(assert
 (let (($x3317 (= cell_7_6 2)))
 (let (($x7162 (= cell_7_6 1)))
 (or $x7162 $x3317 (= cell_7_6 3) (= cell_7_6 4) (= cell_7_6 5) (= cell_7_6 6) (= cell_7_6 7) (= cell_7_6 8) (= cell_7_6 9)))))
(assert
 (let (($x1208 (= cell_8_6 2)))
 (let (($x6481 (= cell_8_6 1)))
 (or $x6481 $x1208 (= cell_8_6 3) (= cell_8_6 4) (= cell_8_6 5) (= cell_8_6 6) (= cell_8_6 7) (= cell_8_6 8) (= cell_8_6 9)))))
(assert
 (let (($x9816 (= cell_9_6 9)))
 (let (($x4526 (= cell_9_6 8)))
 (let (($x7494 (= cell_9_6 7)))
 (let (($x3177 (= cell_9_6 6)))
 (let (($x3436 (= cell_9_6 5)))
 (let (($x4234 (= cell_9_6 4)))
 (let (($x9085 (= cell_9_6 3)))
 (let (($x6102 (= cell_9_6 2)))
 (let (($x2937 (= cell_9_6 1)))
 (or $x2937 $x6102 $x9085 $x4234 $x3436 $x3177 $x7494 $x4526 $x9816)))))))))))
(assert
 (let (($x5467 (= cell_1_7 9)))
 (let (($x1115 (= cell_1_7 8)))
 (let (($x1442 (= cell_1_7 7)))
 (let (($x2258 (= cell_1_7 6)))
 (let (($x8763 (= cell_1_7 5)))
 (let (($x418 (= cell_1_7 4)))
 (let (($x5548 (= cell_1_7 3)))
 (let (($x3155 (= cell_1_7 2)))
 (let (($x8732 (= cell_1_7 1)))
 (or $x8732 $x3155 $x5548 $x418 $x8763 $x2258 $x1442 $x1115 $x5467)))))))))))
(assert
 (let (($x6184 (= cell_2_7 9)))
 (let (($x3261 (= cell_2_7 8)))
 (let (($x2361 (= cell_2_7 7)))
 (let (($x9835 (= cell_2_7 6)))
 (let (($x816 (= cell_2_7 5)))
 (let (($x7120 (= cell_2_7 4)))
 (let (($x6449 (= cell_2_7 3)))
 (let (($x2894 (= cell_2_7 2)))
 (let (($x8953 (= cell_2_7 1)))
 (or $x8953 $x2894 $x6449 $x7120 $x816 $x9835 $x2361 $x3261 $x6184)))))))))))
(assert
 (let (($x1072 (= cell_3_7 9)))
 (let (($x7886 (= cell_3_7 8)))
 (let (($x3703 (= cell_3_7 7)))
 (let (($x5237 (= cell_3_7 6)))
 (let (($x1057 (= cell_3_7 5)))
 (let (($x4067 (= cell_3_7 4)))
 (let (($x6718 (= cell_3_7 3)))
 (let (($x578 (= cell_3_7 2)))
 (let (($x5993 (= cell_3_7 1)))
 (or $x5993 $x578 $x6718 $x4067 $x1057 $x5237 $x3703 $x7886 $x1072)))))))))))
(assert
 (let (($x1052 (= cell_4_7 9)))
 (let (($x1460 (= cell_4_7 8)))
 (let (($x9466 (= cell_4_7 7)))
 (let (($x662 (= cell_4_7 6)))
 (let (($x9163 (= cell_4_7 5)))
 (let (($x5582 (= cell_4_7 4)))
 (let (($x4801 (= cell_4_7 3)))
 (let (($x1253 (= cell_4_7 2)))
 (let (($x2132 (= cell_4_7 1)))
 (or $x2132 $x1253 $x4801 $x5582 $x9163 $x662 $x9466 $x1460 $x1052)))))))))))
(assert
 (let (($x4265 (= cell_5_7 9)))
 (let (($x4947 (= cell_5_7 8)))
 (let (($x693 (= cell_5_7 7)))
 (let (($x1344 (= cell_5_7 6)))
 (let (($x9300 (= cell_5_7 5)))
 (let (($x7838 (= cell_5_7 4)))
 (let (($x8848 (= cell_5_7 3)))
 (let (($x7476 (= cell_5_7 2)))
 (let (($x7037 (= cell_5_7 1)))
 (or $x7037 $x7476 $x8848 $x7838 $x9300 $x1344 $x693 $x4947 $x4265)))))))))))
(assert
 (let (($x7411 (= cell_6_7 9)))
 (let (($x3684 (= cell_6_7 8)))
 (let (($x248 (= cell_6_7 7)))
 (let (($x215 (= cell_6_7 6)))
 (let (($x8021 (= cell_6_7 5)))
 (let (($x3691 (= cell_6_7 4)))
 (let (($x3230 (= cell_6_7 3)))
 (let (($x8834 (= cell_6_7 2)))
 (let (($x8957 (= cell_6_7 1)))
 (or $x8957 $x8834 $x3230 $x3691 $x8021 $x215 $x248 $x3684 $x7411)))))))))))
(assert
 (let (($x5594 (= cell_7_7 9)))
 (let (($x6990 (= cell_7_7 8)))
 (let (($x3849 (= cell_7_7 7)))
 (let (($x6757 (= cell_7_7 6)))
 (let (($x7992 (= cell_7_7 5)))
 (let (($x7895 (= cell_7_7 4)))
 (let (($x2056 (= cell_7_7 3)))
 (let (($x2309 (= cell_7_7 2)))
 (let (($x188 (= cell_7_7 1)))
 (or $x188 $x2309 $x2056 $x7895 $x7992 $x6757 $x3849 $x6990 $x5594)))))))))))
(assert
 (let (($x5088 (= cell_8_7 9)))
 (let (($x8425 (= cell_8_7 8)))
 (let (($x8114 (= cell_8_7 7)))
 (let (($x280 (= cell_8_7 6)))
 (let (($x5314 (= cell_8_7 5)))
 (let (($x1602 (= cell_8_7 4)))
 (let (($x6459 (= cell_8_7 3)))
 (let (($x644 (= cell_8_7 2)))
 (let (($x9205 (= cell_8_7 1)))
 (or $x9205 $x644 $x6459 $x1602 $x5314 $x280 $x8114 $x8425 $x5088)))))))))))
(assert
 (let (($x4115 (= cell_9_7 1)))
 (or $x4115 (= cell_9_7 2) (= cell_9_7 3) (= cell_9_7 4) (= cell_9_7 5) (= cell_9_7 6) (= cell_9_7 7) (= cell_9_7 8) (= cell_9_7 9))))
(assert
 (let (($x2234 (= cell_1_8 9)))
 (let (($x3465 (= cell_1_8 8)))
 (let (($x3215 (= cell_1_8 7)))
 (let (($x4334 (= cell_1_8 6)))
 (let (($x5229 (= cell_1_8 5)))
 (let (($x9142 (= cell_1_8 4)))
 (let (($x2410 (= cell_1_8 3)))
 (let (($x1301 (= cell_1_8 2)))
 (let (($x77 (= cell_1_8 1)))
 (or $x77 $x1301 $x2410 $x9142 $x5229 $x4334 $x3215 $x3465 $x2234)))))))))))
(assert
 (let (($x4603 (= cell_2_8 1)))
 (or $x4603 (= cell_2_8 2) (= cell_2_8 3) (= cell_2_8 4) (= cell_2_8 5) (= cell_2_8 6) (= cell_2_8 7) (= cell_2_8 8) (= cell_2_8 9))))
(assert
 (let (($x7375 (= cell_3_8 2)))
 (or (= cell_3_8 1) $x7375 (= cell_3_8 3) (= cell_3_8 4) (= cell_3_8 5) (= cell_3_8 6) (= cell_3_8 7) (= cell_3_8 8) (= cell_3_8 9))))
(assert
 (let (($x9621 (= cell_4_8 9)))
 (let (($x4519 (= cell_4_8 8)))
 (let (($x281 (= cell_4_8 7)))
 (let (($x10098 (= cell_4_8 6)))
 (let (($x9233 (= cell_4_8 5)))
 (let (($x6957 (= cell_4_8 4)))
 (let (($x8213 (= cell_4_8 3)))
 (let (($x3911 (= cell_4_8 2)))
 (let (($x9369 (= cell_4_8 1)))
 (or $x9369 $x3911 $x8213 $x6957 $x9233 $x10098 $x281 $x4519 $x9621)))))))))))
(assert
 (let (($x888 (= cell_5_8 9)))
 (let (($x6514 (= cell_5_8 8)))
 (let (($x8749 (= cell_5_8 7)))
 (let (($x1075 (= cell_5_8 6)))
 (let (($x4983 (= cell_5_8 5)))
 (let (($x9969 (= cell_5_8 4)))
 (let (($x2386 (= cell_5_8 3)))
 (let (($x2569 (= cell_5_8 2)))
 (let (($x6221 (= cell_5_8 1)))
 (or $x6221 $x2569 $x2386 $x9969 $x4983 $x1075 $x8749 $x6514 $x888)))))))))))
(assert
 (let (($x8626 (= cell_6_8 2)))
 (let (($x8136 (= cell_6_8 1)))
 (or $x8136 $x8626 (= cell_6_8 3) (= cell_6_8 4) (= cell_6_8 5) (= cell_6_8 6) (= cell_6_8 7) (= cell_6_8 8) (= cell_6_8 9)))))
(assert
 (let (($x1665 (= cell_7_8 9)))
 (let (($x4204 (= cell_7_8 8)))
 (let (($x10119 (= cell_7_8 7)))
 (let (($x8688 (= cell_7_8 6)))
 (let (($x1388 (= cell_7_8 5)))
 (let (($x9930 (= cell_7_8 4)))
 (let (($x3362 (= cell_7_8 3)))
 (let (($x10350 (= cell_7_8 2)))
 (let (($x2403 (= cell_7_8 1)))
 (or $x2403 $x10350 $x3362 $x9930 $x1388 $x8688 $x10119 $x4204 $x1665)))))))))))
(assert
 (let (($x5962 (= cell_8_8 9)))
 (let (($x2324 (= cell_8_8 8)))
 (let (($x1649 (= cell_8_8 7)))
 (let (($x5446 (= cell_8_8 6)))
 (let (($x3639 (= cell_8_8 5)))
 (let (($x2174 (= cell_8_8 4)))
 (let (($x3173 (= cell_8_8 3)))
 (let (($x6786 (= cell_8_8 2)))
 (let (($x8689 (= cell_8_8 1)))
 (or $x8689 $x6786 $x3173 $x2174 $x3639 $x5446 $x1649 $x2324 $x5962)))))))))))
(assert
 (let (($x7866 (= cell_9_8 2)))
 (let (($x8985 (= cell_9_8 1)))
 (or $x8985 $x7866 (= cell_9_8 3) (= cell_9_8 4) (= cell_9_8 5) (= cell_9_8 6) (= cell_9_8 7) (= cell_9_8 8) (= cell_9_8 9)))))
(assert
 (let (($x8634 (= cell_1_9 9)))
 (let (($x4129 (= cell_1_9 8)))
 (let (($x2354 (= cell_1_9 7)))
 (let (($x5742 (= cell_1_9 6)))
 (let (($x5768 (= cell_1_9 5)))
 (let (($x9581 (= cell_1_9 4)))
 (let (($x2506 (= cell_1_9 3)))
 (let (($x4276 (= cell_1_9 2)))
 (let (($x536 (= cell_1_9 1)))
 (or $x536 $x4276 $x2506 $x9581 $x5768 $x5742 $x2354 $x4129 $x8634)))))))))))
(assert
 (let (($x9241 (= cell_2_9 9)))
 (let (($x2886 (= cell_2_9 8)))
 (let (($x7178 (= cell_2_9 7)))
 (let (($x6143 (= cell_2_9 6)))
 (let (($x1286 (= cell_2_9 5)))
 (let (($x2994 (= cell_2_9 4)))
 (let (($x1362 (= cell_2_9 3)))
 (let (($x7810 (= cell_2_9 2)))
 (let (($x6345 (= cell_2_9 1)))
 (or $x6345 $x7810 $x1362 $x2994 $x1286 $x6143 $x7178 $x2886 $x9241)))))))))))
(assert
 (let (($x4043 (= cell_3_9 9)))
 (let (($x4560 (= cell_3_9 8)))
 (let (($x7131 (= cell_3_9 7)))
 (let (($x7518 (= cell_3_9 6)))
 (let (($x3952 (= cell_3_9 5)))
 (let (($x8653 (= cell_3_9 4)))
 (let (($x6106 (= cell_3_9 3)))
 (let (($x9694 (= cell_3_9 2)))
 (let (($x10108 (= cell_3_9 1)))
 (or $x10108 $x9694 $x6106 $x8653 $x3952 $x7518 $x7131 $x4560 $x4043)))))))))))
(assert
 (let (($x8503 (= cell_4_9 2)))
 (or (= cell_4_9 1) $x8503 (= cell_4_9 3) (= cell_4_9 4) (= cell_4_9 5) (= cell_4_9 6) (= cell_4_9 7) (= cell_4_9 8) (= cell_4_9 9))))
(assert
 (let (($x1479 (= cell_5_9 1)))
 (or $x1479 (= cell_5_9 2) (= cell_5_9 3) (= cell_5_9 4) (= cell_5_9 5) (= cell_5_9 6) (= cell_5_9 7) (= cell_5_9 8) (= cell_5_9 9))))
(assert
 (let (($x388 (= cell_6_9 2)))
 (let (($x5065 (= cell_6_9 1)))
 (or $x5065 $x388 (= cell_6_9 3) (= cell_6_9 4) (= cell_6_9 5) (= cell_6_9 6) (= cell_6_9 7) (= cell_6_9 8) (= cell_6_9 9)))))
(assert
 (let (($x6382 (= cell_7_9 9)))
 (let (($x3499 (= cell_7_9 8)))
 (let (($x9676 (= cell_7_9 7)))
 (let (($x8325 (= cell_7_9 6)))
 (let (($x9862 (= cell_7_9 5)))
 (let (($x5384 (= cell_7_9 4)))
 (let (($x48 (= cell_7_9 3)))
 (let (($x3513 (= cell_7_9 2)))
 (let (($x5629 (= cell_7_9 1)))
 (or $x5629 $x3513 $x48 $x5384 $x9862 $x8325 $x9676 $x3499 $x6382)))))))))))
(assert
 (let (($x2691 (= cell_8_9 9)))
 (let (($x9634 (= cell_8_9 8)))
 (let (($x178 (= cell_8_9 7)))
 (let (($x3394 (= cell_8_9 6)))
 (let (($x4330 (= cell_8_9 5)))
 (let (($x1904 (= cell_8_9 4)))
 (let (($x6272 (= cell_8_9 3)))
 (let (($x4681 (= cell_8_9 2)))
 (let (($x9368 (= cell_8_9 1)))
 (or $x9368 $x4681 $x6272 $x1904 $x4330 $x3394 $x178 $x9634 $x2691)))))))))))
(assert
 (let (($x1440 (= cell_9_9 2)))
 (let (($x6726 (= cell_9_9 1)))
 (or $x6726 $x1440 (= cell_9_9 3) (= cell_9_9 4) (= cell_9_9 5) (= cell_9_9 6) (= cell_9_9 7) (= cell_9_9 8) (= cell_9_9 9)))))
(assert
 (and (distinct cell_1_1 cell_1_2 cell_1_3 cell_1_4 cell_1_5 cell_1_6 cell_1_7 cell_1_8 cell_1_9) true))
(assert
 (and (distinct cell_2_1 cell_2_2 cell_2_3 cell_2_4 cell_2_5 cell_2_6 cell_2_7 cell_2_8 cell_2_9) true))
(assert
 (and (distinct cell_3_1 cell_3_2 cell_3_3 cell_3_4 cell_3_5 cell_3_6 cell_3_7 cell_3_8 cell_3_9) true))
(assert
 (and (distinct cell_4_1 cell_4_2 cell_4_3 cell_4_4 cell_4_5 cell_4_6 cell_4_7 cell_4_8 cell_4_9) true))
(assert
 (and (distinct cell_5_1 cell_5_2 cell_5_3 cell_5_4 cell_5_5 cell_5_6 cell_5_7 cell_5_8 cell_5_9) true))
(assert
 (and (distinct cell_6_1 cell_6_2 cell_6_3 cell_6_4 cell_6_5 cell_6_6 cell_6_7 cell_6_8 cell_6_9) true))
(assert
 (and (distinct cell_7_1 cell_7_2 cell_7_3 cell_7_4 cell_7_5 cell_7_6 cell_7_7 cell_7_8 cell_7_9) true))
(assert
 (and (distinct cell_8_1 cell_8_2 cell_8_3 cell_8_4 cell_8_5 cell_8_6 cell_8_7 cell_8_8 cell_8_9) true))
(assert
 (and (distinct cell_9_1 cell_9_2 cell_9_3 cell_9_4 cell_9_5 cell_9_6 cell_9_7 cell_9_8 cell_9_9) true))
(assert
 (and (distinct cell_1_1 cell_2_1 cell_3_1 cell_4_1 cell_5_1 cell_6_1 cell_7_1 cell_8_1 cell_9_1) true))
(assert
 (and (distinct cell_1_2 cell_2_2 cell_3_2 cell_4_2 cell_5_2 cell_6_2 cell_7_2 cell_8_2 cell_9_2) true))
(assert
 (and (distinct cell_1_3 cell_2_3 cell_3_3 cell_4_3 cell_5_3 cell_6_3 cell_7_3 cell_8_3 cell_9_3) true))
(assert
 (and (distinct cell_1_4 cell_2_4 cell_3_4 cell_4_4 cell_5_4 cell_6_4 cell_7_4 cell_8_4 cell_9_4) true))
(assert
 (and (distinct cell_1_5 cell_2_5 cell_3_5 cell_4_5 cell_5_5 cell_6_5 cell_7_5 cell_8_5 cell_9_5) true))
(assert
 (and (distinct cell_1_6 cell_2_6 cell_3_6 cell_4_6 cell_5_6 cell_6_6 cell_7_6 cell_8_6 cell_9_6) true))
(assert
 (and (distinct cell_1_7 cell_2_7 cell_3_7 cell_4_7 cell_5_7 cell_6_7 cell_7_7 cell_8_7 cell_9_7) true))
(assert
 (and (distinct cell_1_8 cell_2_8 cell_3_8 cell_4_8 cell_5_8 cell_6_8 cell_7_8 cell_8_8 cell_9_8) true))
(assert
 (and (distinct cell_1_9 cell_2_9 cell_3_9 cell_4_9 cell_5_9 cell_6_9 cell_7_9 cell_8_9 cell_9_9) true))
(assert
 (and (distinct cell_1_1 cell_1_2 cell_1_3 cell_2_1 cell_2_2 cell_2_3 cell_3_1 cell_3_2 cell_3_3) true))
(assert
 (and (distinct cell_1_4 cell_1_5 cell_1_6 cell_2_4 cell_2_5 cell_2_6 cell_3_4 cell_3_5 cell_3_6) true))
(assert
 (and (distinct cell_1_7 cell_1_8 cell_1_9 cell_2_7 cell_2_8 cell_2_9 cell_3_7 cell_3_8 cell_3_9) true))
(assert
 (and (distinct cell_4_1 cell_4_2 cell_4_3 cell_5_1 cell_5_2 cell_5_3 cell_6_1 cell_6_2 cell_6_3) true))
(assert
 (and (distinct cell_4_4 cell_4_5 cell_4_6 cell_5_4 cell_5_5 cell_5_6 cell_6_4 cell_6_5 cell_6_6) true))
(assert
 (and (distinct cell_4_7 cell_4_8 cell_4_9 cell_5_7 cell_5_8 cell_5_9 cell_6_7 cell_6_8 cell_6_9) true))
(assert
 (and (distinct cell_7_1 cell_7_2 cell_7_3 cell_8_1 cell_8_2 cell_8_3 cell_9_1 cell_9_2 cell_9_3) true))
(assert
 (and (distinct cell_7_4 cell_7_5 cell_7_6 cell_8_4 cell_8_5 cell_8_6 cell_9_4 cell_9_5 cell_9_6) true))
(assert
 (and (distinct cell_7_7 cell_7_8 cell_7_9 cell_8_7 cell_8_8 cell_8_9 cell_9_7 cell_9_8 cell_9_9) true))
(assert
 (let (($x3456 (and (distinct cell_5_9 cell_6_8 cell_7_7 cell_8_6) true)))
 (let (($x3308 (and (distinct cell_2_9 cell_3_8 cell_4_7 cell_5_6 cell_6_5 cell_7_4 cell_8_3 cell_9_2) true)))
 (let (($x4415 (and (distinct cell_1_8 cell_2_7 cell_3_6 cell_4_5 cell_5_4 cell_6_3 cell_7_2 cell_8_1) true)))
 (let (($x8328 (and (distinct cell_1_5 cell_2_4 cell_3_3 cell_4_2) true)))
 (let (($x6753 (and (distinct cell_5_1 cell_6_2 cell_7_3 cell_8_4) true)))
 (let (($x5679 (and (distinct cell_2_1 cell_3_2 cell_4_3 cell_5_4 cell_6_5 cell_7_6 cell_8_7 cell_9_8) true)))
 (let (($x1852 (and (distinct cell_1_2 cell_2_3 cell_3_4 cell_4_5 cell_5_6 cell_6_7 cell_7_8 cell_8_9) true)))
 (let (($x6638 (and (distinct cell_1_5 cell_2_6 cell_3_7 cell_4_8) true)))
 (and $x6638 $x1852 $x5679 $x6753 $x8328 $x4415 $x3308 $x3456))))))))))
(assert
 (= cell_7_2 2))
(check-sat)
